122 5
10 10 10 10 10 

0 0 0 0 0 0 5 2 14 26 38 50 
0 0 0 0 0 0 6 3 6 7 8 11 12 
8 1 0 0 0 0 2 5 4 
7 3 0 0 0 0 2 10 9 
9 3 0 0 0 0 2 10 9 
6 3 0 0 0 0 1 9 
6 4 0 0 0 0 1 9 
5 2 0 0 0 0 1 9 
9 1 0 0 0 0 1 13 
2 3 0 0 0 0 1 13 
2 2 0 0 0 0 1 13 
6 3 0 0 0 0 1 13 
0 0 0 0 0 0 1 62 
0 0 0 0 0 0 5 15 18 19 23 24 
6 0 0 0 0 1 3 22 17 16 
4 0 0 0 0 2 2 21 20 
2 0 0 0 0 1 1 20 
10 0 0 0 0 3 1 20 
1 0 0 0 0 3 1 20 
6 0 0 0 0 2 1 25 
7 0 0 0 0 4 1 25 
9 0 0 0 0 3 1 25 
3 0 0 0 0 4 1 25 
1 0 0 0 0 2 1 25 
0 0 0 0 0 0 1 62 
0 0 0 0 0 0 4 27 28 30 31 
9 0 0 0 0 1 3 36 32 29 
10 0 0 0 0 1 3 35 33 32 
10 0 0 0 0 3 1 33 
6 0 0 0 0 3 1 34 
4 0 0 0 0 4 1 32 
7 0 0 0 0 5 1 37 
1 0 0 0 0 2 1 37 
2 0 0 0 0 1 1 37 
1 0 0 0 0 1 1 37 
9 0 0 0 0 4 1 37 
0 0 0 0 0 0 1 62 
0 0 0 0 0 0 5 39 40 41 42 48 
7 0 1 0 0 0 4 47 46 45 44 
2 0 1 0 0 0 3 46 44 43 
1 0 1 0 0 0 2 46 44 
9 0 2 0 0 0 2 45 44 
5 0 2 0 0 0 1 45 
6 0 6 0 0 0 1 49 
10 0 2 0 0 0 1 49 
7 0 4 0 0 0 1 49 
7 0 3 0 0 0 1 49 
1 0 3 0 0 0 1 49 
0 0 0 0 0 0 1 62 
0 0 0 0 0 0 3 51 53 54 
9 0 0 1 0 0 3 57 55 52 
8 0 0 4 0 0 4 60 59 58 56 
4 0 0 2 0 0 3 59 57 56 
3 0 0 5 0 0 3 58 57 56 
6 0 0 3 0 0 1 56 
10 0 0 1 0 0 1 61 
5 0 0 3 0 0 1 61 
9 0 0 1 0 0 1 61 
8 0 0 2 0 0 1 61 
6 0 0 3 0 0 1 61 
0 0 0 0 0 0 1 62 
0 0 0 0 0 0 2 63 75 
0 0 0 0 0 0 7 64 65 66 68 71 72 73 
8 1 0 0 0 0 2 70 67 
4 3 0 0 0 0 1 67 
6 3 0 0 0 0 1 67 
5 1 0 0 0 0 1 69 
7 2 0 0 0 0 1 69 
9 6 0 0 0 0 1 74 
5 3 0 0 0 0 1 74 
5 4 0 0 0 0 1 74 
4 1 0 0 0 0 1 74 
6 1 0 0 0 0 1 74 
0 0 0 0 0 0 1 87 
0 0 0 0 0 0 5 76 78 79 80 82 
7 1 0 0 0 0 1 77 
2 4 0 0 0 0 3 85 84 83 
9 6 0 0 0 0 3 85 84 83 
3 3 0 0 0 0 2 84 81 
6 2 0 0 0 0 1 81 
1 5 0 0 0 0 1 83 
6 1 0 0 0 0 1 83 
7 1 0 0 0 0 1 86 
6 1 0 0 0 0 1 86 
3 1 0 0 0 0 1 86 
0 0 0 0 0 0 1 87 
0 0 0 0 0 0 5 88 90 91 96 97 
1 0 0 0 0 1 2 93 89 
8 0 0 0 0 2 3 95 94 92 
9 0 0 0 0 3 3 94 93 92 
7 0 0 0 0 3 2 93 92 
2 0 0 0 0 2 1 98 
7 0 0 0 0 4 1 98 
2 0 0 0 0 4 1 98 
3 0 0 0 0 2 1 98 
4 0 0 0 0 2 1 98 
1 0 0 0 0 2 1 98 
0 0 0 0 0 0 1 99 
0 0 0 0 0 0 2 100 101 
9 0 1 0 0 0 4 105 104 103 102 
3 0 1 0 0 0 4 105 104 103 102 
10 0 4 0 0 0 4 109 108 107 106 
4 0 2 0 0 0 4 109 108 107 106 
3 0 4 0 0 0 4 109 108 107 106 
2 0 3 0 0 0 4 109 108 107 106 
8 0 3 0 0 0 1 110 
10 0 2 0 0 0 1 110 
3 0 3 0 0 0 1 110 
1 0 2 0 0 0 1 110 
0 0 0 0 0 0 1 111 
0 0 0 0 0 0 2 112 113 
10 0 0 0 1 0 4 117 116 115 114 
8 0 0 0 2 0 2 117 114 
8 0 0 0 5 0 4 121 120 119 118 
6 0 0 0 4 0 4 121 120 119 118 
8 0 0 0 1 0 4 121 120 119 118 
3 0 0 0 6 0 3 120 119 118 
6 0 0 0 2 0 1 122 
10 0 0 0 1 0 1 122 
2 0 0 0 2 0 1 122 
4 0 0 0 1 0 1 122 
0 0 0 0 0 0 0 
